c moral graph
p tw 173 509
1 3
1 3
1 3
1 3
1 3
1 3
1 3
1 3
1 3
1 3
1 3
1 3
1 3
1 6
1 8
1 10
1 12
1 14
1 16
1 18
1 20
1 22
1 24
1 26
1 28
2 4
2 4
2 4
2 4
2 4
2 4
2 4
2 4
2 4
2 4
2 4
2 4
2 4
2 7
2 9
2 11
2 13
2 15
2 17
2 19
2 21
2 23
2 25
2 27
2 29
3 4
3 5
3 6
3 8
3 10
3 12
3 14
3 16
3 18
3 20
3 22
3 24
3 26
3 28
4 5
4 7
4 9
4 11
4 13
4 15
4 17
4 19
4 21
4 23
4 25
4 27
4 29
6 7
6 9
6 11
6 13
6 15
6 17
6 19
6 21
6 23
6 25
6 27
6 29
6 30
6 31
6 32
6 33
6 34
6 35
6 36
6 37
6 38
6 39
6 40
6 41
7 8
7 10
7 12
7 14
7 16
7 18
7 20
7 22
7 24
7 26
7 28
7 30
7 42
7 54
7 66
7 78
7 90
7 102
7 114
7 126
7 138
7 150
7 162
8 9
8 11
8 13
8 15
8 17
8 19
8 21
8 23
8 25
8 27
8 29
8 42
8 43
8 44
8 45
8 46
8 47
8 48
8 49
8 50
8 51
8 52
8 53
9 10
9 12
9 14
9 16
9 18
9 20
9 22
9 24
9 26
9 28
9 31
9 43
9 55
9 67
9 79
9 91
9 103
9 115
9 127
9 139
9 151
9 163
10 11
10 13
10 15
10 17
10 19
10 21
10 23
10 25
10 27
10 29
10 54
10 55
10 56
10 57
10 58
10 59
10 60
10 61
10 62
10 63
10 64
10 65
11 12
11 14
11 16
11 18
11 20
11 22
11 24
11 26
11 28
11 32
11 44
11 56
11 68
11 80
11 92
11 104
11 116
11 128
11 140
11 152
11 164
12 13
12 15
12 17
12 19
12 21
12 23
12 25
12 27
12 29
12 66
12 67
12 68
12 69
12 70
12 71
12 72
12 73
12 74
12 75
12 76
12 77
13 14
13 16
13 18
13 20
13 22
13 24
13 26
13 28
13 33
13 45
13 57
13 69
13 81
13 93
13 105
13 117
13 129
13 141
13 153
13 165
14 15
14 17
14 19
14 21
14 23
14 25
14 27
14 29
14 78
14 79
14 80
14 81
14 82
14 83
14 84
14 85
14 86
14 87
14 88
14 89
15 16
15 18
15 20
15 22
15 24
15 26
15 28
15 34
15 46
15 58
15 70
15 82
15 94
15 106
15 118
15 130
15 142
15 154
15 166
16 17
16 19
16 21
16 23
16 25
16 27
16 29
16 90
16 91
16 92
16 93
16 94
16 95
16 96
16 97
16 98
16 99
16 100
16 101
17 18
17 20
17 22
17 24
17 26
17 28
17 35
17 47
17 59
17 71
17 83
17 95
17 107
17 119
17 131
17 143
17 155
17 167
18 19
18 21
18 23
18 25
18 27
18 29
18 102
18 103
18 104
18 105
18 106
18 107
18 108
18 109
18 110
18 111
18 112
18 113
19 20
19 22
19 24
19 26
19 28
19 36
19 48
19 60
19 72
19 84
19 96
19 108
19 120
19 132
19 144
19 156
19 168
20 21
20 23
20 25
20 27
20 29
20 114
20 115
20 116
20 117
20 118
20 119
20 120
20 121
20 122
20 123
20 124
20 125
21 22
21 24
21 26
21 28
21 37
21 49
21 61
21 73
21 85
21 97
21 109
21 121
21 133
21 145
21 157
21 169
22 23
22 25
22 27
22 29
22 126
22 127
22 128
22 129
22 130
22 131
22 132
22 133
22 134
22 135
22 136
22 137
23 24
23 26
23 28
23 38
23 50
23 62
23 74
23 86
23 98
23 110
23 122
23 134
23 146
23 158
23 170
24 25
24 27
24 29
24 138
24 139
24 140
24 141
24 142
24 143
24 144
24 145
24 146
24 147
24 148
24 149
25 26
25 28
25 39
25 51
25 63
25 75
25 87
25 99
25 111
25 123
25 135
25 147
25 159
25 171
26 27
26 29
26 150
26 151
26 152
26 153
26 154
26 155
26 156
26 157
26 158
26 159
26 160
26 161
27 28
27 40
27 52
27 64
27 76
27 88
27 100
27 112
27 124
27 136
27 148
27 160
27 172
28 29
28 162
28 163
28 164
28 165
28 166
28 167
28 168
28 169
28 170
28 171
28 172
28 173
29 41
29 53
29 65
29 77
29 89
29 101
29 113
29 125
29 137
29 149
29 161
29 173
